#For AgBiI4 Init Struct Relaxation

#Start Params
 ISTART = 0
 ICHARG = 2

#Keep Constant
 EDIFFG = -0.05
 ENCUT = 250
  
#Optimizations
 NCORE = 1
 KPAR = 1
# ISYM = -1

#Occupancies
 ISMEAR = 0
 SIGMA = 0.04

#Magnet and SOC
# LSORBIT = .TRUE.
# ISPIN = 1

#Relaxation
 IBRION = 2
 ISIF = 0
 NSW = 200
 EDIFF = 1e-6

 NEDOS = 3000

#Output
 LMAXMIX = 4
 LWAVE = .TRUE.
 LCHARG = .TRUE.
